(set-logic ALL)
(declare-fun seed0_T_1 () Bool)
(declare-fun seed0_T_2 () Bool)
(declare-fun seed0_T_3 () Bool)
(declare-fun seed0_T_4 () Bool)
(declare-fun seed0_T_5 () Bool)
(declare-fun seed0_T_6 () Bool)
(declare-fun seed0_T_7 () Bool)
(declare-fun seed0_var_0xINPUT_33501 () String)
(assert (and (or (= seed0_T_1 (not (= "3s71lxYG6e" seed0_var_0xINPUT_33501))) (or (str.contains (str.++ seed0_var_0xINPUT_33501 "z3J") (str.++ seed0_var_0xINPUT_33501 "kEqW0fQsvmneTBX3wpR")) (str.suffixof (str.++ seed0_var_0xINPUT_33501 "dt4MPTeSmcC") (str.++ seed0_var_0xINPUT_33501 "ecbDxvO")))) (or seed0_T_1 (not (str.<= (str.++ seed0_var_0xINPUT_33501 "J7lXLahK14v3xQuD26c") (str.++ seed0_var_0xINPUT_33501 "Wb")))) (or (= seed0_T_2 (not (= "" seed0_var_0xINPUT_33501))) (xor (str.< (str.++ seed0_var_0xINPUT_33501 "dzmrYGRos0Ny4Q") (str.++ seed0_var_0xINPUT_33501 "XzElNchi49ZJ5")) (str.prefixof (str.++ seed0_var_0xINPUT_33501 "TJl5z") (str.++ seed0_var_0xINPUT_33501 "EuMAKRH9vGyXh65k")))) (or seed0_T_2 (not (str.contains (str.++ seed0_var_0xINPUT_33501 "qfL64AdrWs1c") (str.++ seed0_var_0xINPUT_33501 "c")))) (or (= seed0_T_3 (not (= seed0_var_0xINPUT_33501 "ywUN4ZIDAC"))) (not (str.suffixof (str.++ seed0_var_0xINPUT_33501 "Oj") (str.++ seed0_var_0xINPUT_33501 "FGo3YW5IKwZyqc")))) (or seed0_T_3 (not (str.< (str.++ seed0_var_0xINPUT_33501 "wRas") (str.++ seed0_var_0xINPUT_33501 "p2kuOyKHM3qItwnmgX4")))) (or (= seed0_T_4 (not (= "ywUN4ZIDAC" seed0_var_0xINPUT_33501))) (str.prefixof (str.++ seed0_var_0xINPUT_33501 "uCoS2") (str.++ seed0_var_0xINPUT_33501 "fuGKoU6X8YW4e5PJIHEM"))) (or seed0_T_4 (or (str.prefixof (str.++ seed0_var_0xINPUT_33501 "nBMulw0zjD") (str.++ seed0_var_0xINPUT_33501 "pBXvdwPRbxO2TUosr")) (str.<= (str.++ seed0_var_0xINPUT_33501 "5qeZg") (str.++ seed0_var_0xINPUT_33501 "PEqN4QfK3M7ivkaHd")))) (or (= seed0_T_5 (= seed0_var_0xINPUT_33501 "")) (xor (str.< (str.++ seed0_var_0xINPUT_33501 "NpL61knacx") (str.++ seed0_var_0xINPUT_33501 "uqr1TCH7Z")) (str.<= (str.++ seed0_var_0xINPUT_33501 "y2YNVg1jbImPWX9z") (str.++ seed0_var_0xINPUT_33501 "qsfV0JNd")))) (or (= seed0_T_6 (not seed0_T_5)) (=> (str.<= (str.++ seed0_var_0xINPUT_33501 "pJx") (str.++ seed0_var_0xINPUT_33501 "RwLKfVIl1")) (str.suffixof (str.++ seed0_var_0xINPUT_33501 "") (str.++ seed0_var_0xINPUT_33501 "dNzrjn0OqCFwoX3ZT")))) (or seed0_T_6 (xor (str.prefixof (str.++ seed0_var_0xINPUT_33501 "8E0xsYKaDS3LZp") (str.++ seed0_var_0xINPUT_33501 "wfOWsVyj")) (str.<= (str.++ seed0_var_0xINPUT_33501 "FYHV") (str.++ seed0_var_0xINPUT_33501 "OPZv1Xc4hCLamM")))) (or (= seed0_T_7 (not (= seed0_var_0xINPUT_33501 "6JX7G3VKFq"))) (xor (str.prefixof (str.++ seed0_var_0xINPUT_33501 "DLgwMZ8XWPlv6cAt") (str.++ seed0_var_0xINPUT_33501 "5zQfDiAPF740v2")) (str.<= (str.++ seed0_var_0xINPUT_33501 "Fuc5C0yxOmqTRdkZroz") (str.++ seed0_var_0xINPUT_33501 "")))) (or seed0_T_7 (or (str.suffixof (str.++ seed0_var_0xINPUT_33501 "OpFbf") (str.++ seed0_var_0xINPUT_33501 "6Q0cixD9mtMALY")) (str.suffixof (str.++ seed0_var_0xINPUT_33501 "gfhp") (str.++ seed0_var_0xINPUT_33501 "QROiTo8EuzCeK6PDU"))))))
(check-sat)
(exit)